
Gurobi 6.0.4 (win64) logging started 06/18/15 17:35:55

Read LP format model from file E:\Eigene Dateien\Downloads\Michi shit\VRPTWMS2\instances\mip\fuel\N4-C_DV100-C_SV25_F5_4_No_1.lp
Reading time = 0.00 seconds
(null): 129 rows, 72 columns, 447 nonzeros
Optimize a model with 129 rows, 72 columns and 447 nonzeros
Model has 64 quadratic constraints
Coefficient statistics:
  Matrix range    [1e+00, 1e+06]
  Objective range [5e+04, 1e+07]
  Bounds range    [1e+00, 1e+06]
  RHS range       [1e+00, 1e+06]
Presolve removed 14 rows and 7 columns
Presolve time: 0.00s
Presolved: 237 rows, 126 columns, 1096 nonzeros
Variable types: 61 continuous, 65 integer (47 binary)
Found heuristic solution: objective 4.166300e+07

Root relaxation: objective 1.001228e+06, 35 iterations, 0.00 seconds

    Nodes    |    Current Node    |     Objective Bounds      |     Work
 Expl Unexpl |  Obj  Depth IntInf | Incumbent    BestBd   Gap | It/Node Time

     0     0 1001228.06    0   15 4.1663e+07 1001228.06  97.6%     -    0s
     0     0 3092026.75    0   19 4.1663e+07 3092026.75  92.6%     -    0s
     0     0 1.0775e+07    0   11 4.1663e+07 1.0775e+07  74.1%     -    0s
H    0     0                    3.127160e+07 1.0775e+07  65.5%     -    0s
H    0     0                    2.136300e+07 1.0775e+07  49.6%     -    0s
     0     0 1.0775e+07    0    8 2.1363e+07 1.0775e+07  49.6%     -    0s
     0     0 1.0775e+07    0    6 2.1363e+07 1.0775e+07  49.6%     -    0s
H    0     0                    2.125380e+07 1.0775e+07  49.3%     -    0s
     0     2 1.0775e+07    0    6 2.1254e+07 1.0775e+07  49.3%     -    0s

Cutting planes:
  Learned: 1
  Gomory: 1
  Cover: 2
  Implied bound: 4
  GUB cover: 4

Explored 33 nodes (252 simplex iterations) in 0.05 seconds
Thread count was 4 (of 4 available processors)

Optimal solution found (tolerance 1.00e-04)
Best objective 2.125380000000e+07, best bound 2.125380000000e+07, gap 0.0%
k_c1	1000000.0
k_c2	960000.0
k_c3	55000.0
k_c4	1000000.0
k_dN	-0.0
o_1	-0.0
o_2	-0.0
o_3	-0.0
o_4	-0.0
p_1	-0.0
p_2	-0.0
p_3	-0.0
p_4	-0.0
phi_c1	21622.0
phi_c2	19869.0
phi_c3	3606.0
phi_c4	30105.0
phi_d0	50000.0
phi_dN	-0.0
tauD_c1	250000.0
tauD_c2	536600.0
tauD_c3	650000.0
tauD_c4	458350.0
tauD_d0	-0.0
tauD_dN	1000000.0
tauS_c1	-0.0
tauS_c2	-0.0
tauS_c3	-0.0
tauS_c4	-0.0
tauS_d0	-0.0
tauS_dN	-0.0
x_c1_c3	1.0
x_c2_dN	1.0
x_c3_dN	1.0
x_c4_c2	1.0
x_d0_c1	1.0
x_d0_c4	1.0
